DATASET = "thpack7";
INSTANCE = "089";

WIDTH = 233;
HEIGHT = 220;
LENGTH = 587;

NO_OF_SHAPES = 20;
size = [|
  95,92,46 |
  65,60,40 |
  103,62,59 |
  71,65,52 |
  119,87,28 |
  109,92,78 |
  58,54,35 |
  98,73,64 |
  44,44,40 |
  70,69,35 |
  119,61,58 |
  89,55,45 |
  75,68,58 |
  43,37,30 |
  95,77,41 |
  65,63,63 |
  107,70,62 |
  109,69,21 |
  54,34,21 |
  118,45,32 |
|];

verticality = [|
  0,0,1 |
  1,1,1 |
  1,1,1 |
  1,1,1 |
  0,0,1 |
  1,1,1 |
  1,1,1 |
  1,1,1 |
  1,1,1 |
  0,1,1 |
  0,1,1 |
  1,1,1 |
  1,1,1 |
  1,1,1 |
  0,1,1 |
  1,1,1 |
  1,1,1 |
  0,0,1 |
  0,1,1 |
  0,1,1 |
|];

box_count = [
  4,
  5,
  3,
  9,
  6,
  6,
  6,
  5,
  1,
  7,
  5,
  10,
  5,
  3,
  9,
  4,
  6,
  4,
  4,
  3,
];
